proyfinal/src/viki/013/experimentInOfficeAgust.take6.output/9e29580a-cb08-4f9d-8405-60f78bd6717a.als.out
Reading from standard input... Use '--help' for help.
============================[ Problem Statistics ]=============================
|                                                                             |
|  Number of variables:         87638                                         |
|  Number of clauses:          161767                                         |
|  Parse time:                   0.03 s                                       |
|                                                                             |
============================[ Search Statistics ]==============================
| Conflicts |          ORIGINAL         |          LEARNT          | Progress |
|           |    Vars  Clauses Literals |    Limit  Clauses Lit/Cl |          |
===============================================================================
|       100 |   62023   103897   259542 |    38095      100     24 | 29.228 % |
|       250 |   62023   103897   259542 |    41905      250     29 | 29.228 % |
|       475 |   62023   103897   259542 |    46095      475     54 | 29.228 % |
|       812 |   62023   103897   259542 |    50705      812     56 | 29.228 % |
|      1318 |   50287    70855   178379 |    55775     1305     61 | 42.620 % |
|      2077 |   50097    70359   177204 |    61353     2038     51 | 42.836 % |
|      3216 |   50097    70044   176444 |    67488     3177     54 | 42.836 % |
|      4924 |   49378    67238   169719 |    74237     4845     52 | 43.657 % |
|      7486 |   49221    66508   167984 |    81661     7156     49 | 43.836 % |
|     11330 |   48940    65274   165102 |    89827     8452     44 | 44.157 % |
===============================================================================
restarts              : 53
conflicts             : 12188          (8934 /sec)
decisions             : 37797          (0.00 % random) (27704 /sec)
propagations          : 15925228       (11672803 /sec)
conflict literals     : 517944         (43.42 % deleted)
Memory used           : 30.10 MB
CPU time              : 1.3643 s

UNSATISFIABLE
